solution status: optimal solution found
objective value:                     153594.048755098
d11(0,0)                                            1 	(obj:0)
d11(1,1)                                            1 	(obj:0)
d11(1,2)                                            1 	(obj:0)
d11(2,3)                                            1 	(obj:0)
d11(2,4)                                            1 	(obj:0)
d11(2,5)                                            1 	(obj:0)
d11(2,6)                                            1 	(obj:0)
d11(3,7)                                            1 	(obj:0)
d11(3,8)                                            1 	(obj:0)
d11(3,9)                                            1 	(obj:0)
d11(3,11)                                           1 	(obj:0)
d11(3,12)                                           1 	(obj:0)
d11(3,13)                                           1 	(obj:0)
d11(3,14)                                           1 	(obj:0)
d11(4,15)                                           1 	(obj:0)
d11(4,17)                                           1 	(obj:0)
d11(4,19)                                           1 	(obj:0)
d11(4,21)                                           1 	(obj:0)
d11(4,23)                                           1 	(obj:0)
d11(4,25)                                           1 	(obj:0)
d11(4,29)                                           1 	(obj:0)
d12(4,16)                                           1 	(obj:0)
d12(4,18)                                           1 	(obj:0)
d12(4,20)                                           1 	(obj:0)
d12(4,22)                                           1 	(obj:0)
d12(4,24)                                           1 	(obj:0)
d12(4,26)                                           1 	(obj:0)
d12(4,28)                                           1 	(obj:0)
d12(4,30)                                           1 	(obj:0)
d21(2,3)                                            1 	(obj:0)
d21(3,7)                                            1 	(obj:0)
d21(3,8)                                            1 	(obj:0)
d21(3,9)                                            1 	(obj:0)
d21(3,11)                                           1 	(obj:0)
d21(4,15)                                           1 	(obj:0)
d21(4,16)                                           1 	(obj:0)
d21(4,17)                                           1 	(obj:0)
d21(4,18)                                           1 	(obj:0)
d21(4,19)                                           1 	(obj:0)
d21(4,20)                                           1 	(obj:0)
d21(4,23)                                           1 	(obj:0)
d21(4,24)                                           1 	(obj:0)
y2(4,16)                             1385.48851144895 	(obj:0)
y2(4,18)                             1385.48851144895 	(obj:0)
y2(4,20)                             1385.48851144895 	(obj:0)
y2(4,22)                             1385.48851144895 	(obj:0)
y2(4,24)                             1385.48851144895 	(obj:0)
y2(4,26)                             1385.48851144895 	(obj:0)
y2(4,28)                             1385.48851144895 	(obj:0)
y2(4,30)                             1385.48851144895 	(obj:0)
STE(1,1)                             4137.75010111118 	(obj:0)
STE(0,0)                                         6300 	(obj:0)
STE(1,2)                                         5796 	(obj:0)
STE(2,3)                             1869.75010111116 	(obj:0)
STE(2,4)                             3527.99999999998 	(obj:0)
STE(2,5)                             3527.99999999998 	(obj:0)
STE(2,6)                              5186.2498988888 	(obj:0)
STE(3,7)                            -292.499797777634 	(obj:0)
STE(3,8)                             1365.75010111116 	(obj:0)
STE(3,9)                             1365.75010111118 	(obj:0)
STE(3,10)                            3023.99999999998 	(obj:0)
STE(3,11)                            1365.75010111118 	(obj:0)
STE(3,12)                            3023.99999999998 	(obj:0)
STE(3,13)                                        3024 	(obj:0)
STE(3,14)                            4682.24989888882 	(obj:0)
STE(4,15)                           -796.499797777634 	(obj:0)
STE(4,16)                            519.714288098872 	(obj:0)
STE(4,17)                            861.750101111224 	(obj:0)
STE(4,18)                            2177.96418698767 	(obj:0)
STE(4,19)                            861.750101111245 	(obj:0)
STE(4,20)                            2177.96418698769 	(obj:0)
STE(4,21)                            2519.99999999998 	(obj:0)
STE(4,22)                            3836.21408587649 	(obj:0)
STE(4,23)                            861.750101111245 	(obj:0)
STE(4,24)                            2177.96418698769 	(obj:0)
STE(4,25)                            2519.99999999998 	(obj:0)
STE(4,26)                            3836.21408587649 	(obj:0)
STE(4,27)                                        2520 	(obj:0)
STE(4,28)                            3836.21408587651 	(obj:0)
STE(4,29)                            4178.24989888888 	(obj:0)
STE(4,30)                            5494.46398476532 	(obj:0)
y1(3,11)                             1492.42490899992 	(obj:0)
y1(3,13)                             1492.42490899992 	(obj:0)
AVE(1)                               3265.91696791192 	(obj:0)
AVE(2)                               3332.74178563731 	(obj:0)
WB(3)                                3444.11697932125 	(obj:0)
AVE(3)                               3444.11697932125 	(obj:0)
WB(4)                                3399.56511093778 	(obj:0)
AVE(4)                               3399.56511093778 	(obj:0)
WG(1)                                3265.91696791192 	(obj:10)
WG(2)                                3332.74178563731 	(obj:10)
BG(1)                                930.375531067646 	(obj:10)
BG(2)                                960.668153138258 	(obj:10)
BG(3)                                4196.29249897955 	(obj:10)
BG(4)                                2673.40993877551 	(obj:10)
y1(1,1)                              1492.42490899994 	(obj:0)
y1(2,3)                              1587.60000000002 	(obj:0)
y1(2,4)                              95.1750910000829 	(obj:0)
y1(2,5)                              1587.60000000002 	(obj:0)
y1(2,6)                              95.1750910000829 	(obj:0)
y1(3,7)                              1492.42490899992 	(obj:0)
y1(3,9)                              1492.42490899992 	(obj:0)
